100
125
100
99
97
96
96
96
95
94
94
94
93
93
92
91
91
90
90
90
90
90
89
89
88
87
84
83
83
83
82
80
80
79
78
78
78
76
75
74
73
72
70
69
69
68
67
67
66
66
66
63
62
60
59
59
59
57
56
55
54
54
53
50
50
48
47
47
47
46
46
44
43
43
43
43
42
42
41
40
40
40
38
34
33
33
33
31
29
29
28
28
28
27
27
26
25
25
25
25
25
25
